205 5
10 10 10 10 10 

0 0 0 0 0 0 3 2 14 26 
0 0 0 0 0 0 2 3 5 
4 0 7 0 0 0 3 12 11 4 
10 0 5 0 0 0 3 10 9 6 
2 0 8 0 0 0 2 9 8 
8 0 10 0 0 0 1 7 
8 0 5 0 0 0 1 8 
2 0 10 0 0 0 2 13 42 
7 0 3 0 0 0 1 13 
10 0 9 0 0 0 1 13 
9 0 10 0 0 0 1 13 
4 0 8 0 0 0 1 13 
0 0 0 0 0 0 1 38 
0 0 0 0 0 0 3 15 17 18 
8 0 0 0 4 0 2 22 16 
7 0 0 0 5 0 2 20 19 
2 0 0 0 9 0 2 24 20 
3 0 0 0 8 0 2 21 19 
7 0 0 0 10 0 2 24 23 
2 0 0 0 10 0 1 21 
6 0 0 0 8 0 1 23 
1 0 0 0 10 0 1 23 
1 0 0 0 5 0 2 25 34 
7 0 0 0 6 0 1 25 
0 0 0 0 0 0 1 38 
0 0 0 0 0 0 4 27 30 32 36 
5 0 0 1 0 0 1 28 
7 0 0 8 0 0 2 35 29 
9 0 0 10 0 0 2 34 31 
4 0 0 9 0 0 2 34 33 
2 0 0 6 0 0 1 33 
3 0 0 7 0 0 1 35 
10 0 0 8 0 0 1 37 
9 0 0 10 0 0 1 37 
1 0 0 10 0 0 2 37 185 
4 0 0 6 0 0 1 37 
0 0 0 0 0 0 1 38 
0 0 0 0 0 0 3 39 51 63 
0 0 0 0 0 0 5 40 42 48 49 57 
3 0 0 8 0 0 2 47 41 
9 0 0 5 0 0 2 46 43 
1 0 0 6 0 0 1 43 
3 0 0 10 0 0 1 44 
10 0 0 9 0 0 1 45 
9 0 0 5 0 0 1 50 
8 0 0 10 0 0 1 50 
1 0 0 10 0 0 1 50 
7 0 0 5 0 0 1 50 
1 0 0 7 0 0 1 50 
0 0 0 0 0 0 1 75 
0 0 0 0 0 0 3 52 56 61 
4 0 0 3 0 0 3 60 54 53 
5 0 0 6 0 0 2 59 57 
6 0 0 7 0 0 1 55 
8 0 0 6 0 0 1 57 
1 0 0 7 0 0 1 57 
9 0 0 9 0 0 2 58 184 
5 0 0 8 0 0 1 62 
2 0 0 9 0 0 1 62 
8 0 0 10 0 0 1 62 
6 0 0 10 0 0 1 62 
0 0 0 0 0 0 1 75 
0 0 0 0 0 0 4 64 68 69 73 
7 0 0 0 0 6 1 65 
1 0 0 0 0 8 2 72 66 
5 0 0 0 0 10 3 71 67 114 
10 0 0 0 0 7 1 70 
2 0 0 0 0 10 1 71 
10 0 0 0 0 5 1 70 
4 0 0 0 0 5 1 74 
4 0 0 0 0 9 1 74 
3 0 0 0 0 8 1 74 
6 0 0 0 0 7 1 74 
0 0 0 0 0 0 1 75 
0 0 0 0 0 0 3 76 88 100 
0 0 0 0 0 0 3 77 79 82 
9 0 0 7 0 0 2 80 78 
6 0 0 3 0 0 2 85 81 
10 0 0 8 0 0 2 85 81 
5 0 0 10 0 0 3 86 85 103 
6 0 0 5 0 0 1 83 
6 0 0 10 0 0 1 84 
8 0 0 9 0 0 1 86 
7 0 0 10 0 0 1 85 
10 0 0 7 0 0 1 87 
3 0 0 6 0 0 1 87 
0 0 0 0 0 0 1 112 
0 0 0 0 0 0 5 89 93 96 97 98 
4 6 0 0 0 0 1 90 
9 2 0 0 0 0 2 95 91 
7 7 0 0 0 0 1 92 
10 7 0 0 0 0 1 94 
7 9 0 0 0 0 1 94 
2 10 0 0 0 0 1 99 
4 6 0 0 0 0 1 99 
6 10 0 0 0 0 1 99 
9 8 0 0 0 0 1 99 
3 10 0 0 0 0 1 99 
0 0 0 0 0 0 1 112 
0 0 0 0 0 0 3 101 103 106 
9 5 0 0 0 0 3 110 104 102 
1 7 0 0 0 0 2 109 105 
8 7 0 0 0 0 2 110 104 
8 6 0 0 0 0 2 109 108 
9 7 0 0 0 0 1 107 
8 9 0 0 0 0 1 107 
1 8 0 0 0 0 1 108 
7 10 0 0 0 0 1 111 
6 6 0 0 0 0 1 111 
2 10 0 0 0 0 1 111 
0 0 0 0 0 0 1 112 
0 0 0 0 0 0 3 113 125 147 
0 0 0 0 0 0 4 114 117 119 123 
2 0 3 0 0 0 1 115 
5 0 8 0 0 0 1 116 
7 0 10 0 0 0 3 122 121 118 
9 0 5 0 0 0 3 122 121 118 
5 0 10 0 0 0 1 120 
7 0 7 0 0 0 1 120 
7 0 8 0 0 0 1 124 
5 0 8 0 0 0 1 124 
4 0 9 0 0 0 1 124 
6 0 7 0 0 0 1 124 
0 0 0 0 0 0 3 169 181 193 
0 0 0 0 0 0 5 126 135 143 144 145 
7 4 0 0 2 0 1 127 
6 5 0 0 9 0 3 142 141 128 
4 7 0 0 7 0 5 140 139 138 137 129 
4 9 0 0 6 0 1 130 
10 7 0 0 7 0 1 131 
10 10 0 0 9 0 1 132 
9 8 0 0 10 0 1 133 
2 6 0 0 6 0 1 134 
9 10 0 0 7 0 1 136 
6 6 0 0 9 0 1 137 
5 4 0 0 7 0 1 146 
4 10 0 0 10 0 1 146 
7 10 0 0 7 0 1 146 
9 6 0 0 7 0 1 146 
10 9 0 0 8 0 1 146 
4 6 0 0 8 0 1 146 
6 9 0 0 9 0 1 146 
2 4 0 0 10 0 1 146 
5 10 0 0 4 0 1 146 
4 10 0 0 8 0 1 146 
0 0 0 0 0 0 1 205 
0 0 0 0 0 0 7 148 162 163 164 165 166 167 
5 3 0 0 1 0 2 161 149 
1 3 0 0 6 0 1 150 
2 6 0 0 4 0 4 160 159 158 151 
3 4 0 0 9 0 1 152 
3 7 0 0 6 0 1 153 
1 10 0 0 10 0 1 154 
4 7 0 0 5 0 1 155 
1 7 0 0 10 0 1 156 
5 10 0 0 10 0 1 157 
3 8 0 0 8 0 1 168 
3 7 0 0 4 0 1 168 
1 8 0 0 10 0 1 168 
3 8 0 0 5 0 1 168 
3 8 0 0 10 0 1 168 
6 9 0 0 9 0 1 168 
8 10 0 0 10 0 1 168 
5 10 0 0 7 0 1 168 
1 9 0 0 7 0 1 168 
3 10 0 0 10 0 1 168 
6 6 0 0 9 0 1 168 
0 0 0 0 0 0 1 205 
0 0 0 0 0 0 3 170 172 175 
4 0 5 0 0 0 1 171 
4 0 8 0 0 0 2 177 173 
9 0 7 0 0 0 2 179 177 
2 0 10 0 0 0 1 174 
5 0 10 0 0 0 1 176 
3 0 4 0 0 0 1 178 
5 0 7 0 0 0 1 180 
10 0 7 0 0 0 1 180 
1 0 8 0 0 0 1 180 
8 0 9 0 0 0 1 180 
0 0 0 0 0 0 1 205 
0 0 0 0 0 0 3 182 184 185 
10 0 6 0 0 0 2 186 183 
6 0 9 0 0 0 2 191 187 
9 0 5 0 0 0 2 191 187 
2 0 10 0 0 0 2 190 189 
4 0 3 0 0 0 2 191 190 
9 0 10 0 0 0 1 188 
4 0 6 0 0 0 1 190 
3 0 7 0 0 0 1 191 
9 0 10 0 0 0 1 192 
9 0 9 0 0 0 1 192 
0 0 0 0 0 0 1 205 
0 0 0 0 0 0 4 194 196 199 203 
2 0 0 0 0 4 1 195 
3 0 0 0 0 9 2 200 197 
3 0 0 0 0 10 2 202 200 
1 0 0 0 0 10 1 198 
1 0 0 0 0 9 1 201 
5 0 0 0 0 10 1 200 
6 0 0 0 0 5 1 204 
9 0 0 0 0 2 1 204 
5 0 0 0 0 10 1 204 
7 0 0 0 0 6 1 204 
0 0 0 0 0 0 1 205 
0 0 0 0 0 0 0 
